nom = {Alex,Billie,Chris,Dora,Emile,Franck,Gisele,Horst,Iris,Jean,Karl,Lisa};
instrument = {Guitare,Batterie,Violon,Piano,Basse};
ville = {Angers,Nantes};
styles = {Rock,Metal,Jazz,Pop,Classique,Funk,RnB,Rap,Electro,Punk};
heures = 0..10;
niveau = 0..5;

nbStyleMin = [2,3,1,1,2,2,1,1,1,1,2,1];
les_instruments = [Guitare,Batterie,Guitare,Batterie,Violon,Guitare,Piano,Violon,Piano,Piano,Basse,Basse];

les_villes = [Angers,Nantes,Angers,Nantes,Angers,Angers,Nantes,Nantes,Angers,Nantes,Nantes,Angers];
heures_hebdo = [3,3,2,3,5,3,3,3,2,2,3,3];
heures_min = [2,1,1,1,3,1,1,3,2,1,3,2];
heures_max = [4,5,3,4,6,5,5,3,3,5,5,6];

les_styles =[
  {Rock,Metal,Jazz},
  {Jazz,Pop,Classique,Rock,Funk},
  {RnB,Rap,Classique},
  {Pop,Punk,Electro},
  {Classique,Metal,Jazz},
  {Punk,Rock,Classique,Jazz},
  {Pop,Rock,Jazz,Classique},
  {Classique},
  {Classique,Jazz},
  {Jazz,Electro},
  {Jazz,Rap,Funk,Rock},
  {Metal,Pop,Electro,Jazz},
];

les_niveaux = [2,1,5,2,2,3,5,5,5,2,2,4];

niveau_min = [1,1,3,1,1,1,1,5,4,1,1,2];

niveau_max = [4,2,5,5,3,3,5,5,5,3,3,5];
